experiments/knapsack_bounded/knapsack_bounded_10_2.mps
NAME
ROWS
 N  OBJ
 L  c1
 L  c2
 L  c3
 L  c4
 L  c5
 L  c6
 L  c7
 L  c8
 L  c9
 L  c10
 L  c11
COLUMNS
    MARKER    'MARKER'                 'INTORG'
    x[1]      c1        856
    x[1]      c2        1
    x[1]      OBJ       -73
    x[2]      c1        738
    x[2]      c3        1
    x[2]      OBJ       -443
    x[3]      c1        783
    x[3]      c4        1
    x[3]      OBJ       -378
    x[4]      c1        401
    x[4]      c5        1
    x[4]      OBJ       -993
    x[5]      c1        585
    x[5]      c6        1
    x[5]      OBJ       -70
    x[6]      c1        580
    x[6]      c7        1
    x[6]      OBJ       -864
    x[7]      c1        465
    x[7]      c8        1
    x[7]      OBJ       -920
    x[8]      c1        487
    x[8]      c9        1
    x[8]      OBJ       -328
    x[9]      c1        268
    x[9]      c10       1
    x[9]      OBJ       -65
    x[10]     c1        859
    x[10]     c11       1
    x[10]     OBJ       -945
    MARKER    'MARKER'                 'INTEND'
RHS
    rhs       c1        3011
    rhs       c2        1
    rhs       c3        8
    rhs       c4        8
    rhs       c5        10
    rhs       c6        1
    rhs       c7        4
    rhs       c8        10
    rhs       c9        9
    rhs       c10       2
    rhs       c11       3
RANGES
BOUNDS
 LO bounds    x[1]      0
 PL bounds    x[1]
 LO bounds    x[2]      0
 PL bounds    x[2]
 LO bounds    x[3]      0
 PL bounds    x[3]
 LO bounds    x[4]      0
 PL bounds    x[4]
 LO bounds    x[5]      0
 PL bounds    x[5]
 LO bounds    x[6]      0
 PL bounds    x[6]
 LO bounds    x[7]      0
 PL bounds    x[7]
 LO bounds    x[8]      0
 PL bounds    x[8]
 LO bounds    x[9]      0
 PL bounds    x[9]
 LO bounds    x[10]     0
 PL bounds    x[10]
ENDATA
