experiments/knapsack_bounded/knapsack_bounded_10_2.mps.log
Algorithm statistics:
zero_reductions => 1276
max_basis_size => 156
queued_pairs => 0
built_pairs => 1446
reduced_pairs => 1442
eliminated_by_truncation => 20
removed_by_autoreduction => 0
eliminated_by_gcd => 10644
time => 0.037869116
memory => 0.003951527178287506
4ti2 results
4ti2 time => 0.020567859
